units       real

variable      vTEMP equal 298.0
variable      vTEMP_D equal 1.0 
variable      vPRESS equal 1.0

dimension      3

boundary       p p p 

atom_style     full

bond_style      harmonic 
angle_style     harmonic 
special_bonds lj/coul 0.0 0.0 0.5
dihedral_style    harmonic
improper_style    cvff

pair_style lj/cut/coul/long 8.0 8.0
kspace_style pppm 1.0e-3

neighbor   2  bin

read_data  data-p.data

pair_coeff    1    1      0.210939     3.183950  # ODw ODw
pair_coeff    *   2*     0.000000     0.0

group gATOMS type 1:3
group gDRUDES type 4

fix fDRUDE all drude C N N D 
velocity   gATOMS  create ${vTEMP}  12345
velocity   gDRUDES  create ${vTEMP_D}  12345


delete_bonds gATOMS multi

comm_modify vel yes
compute cTEMP_ATOM gATOMS temp
compute cTEMP AAtoms temp/drude


fix DIRECT all drude/transform/direct
fix RIGID gATOMS rigid/nvt/small molecule temp 298. 298. 100
fix NVT gDRUDES nvt temp 1. 1. 20
fix INVERSE all drude/transform/inverse

thermo         50
thermo_style custom step cpu etotal ke temp pe ebond eangle edihed eimp evdwl ecoul elong press vol c_cTEMP[1] c_cTEMP[2]


dump DUMP all custom 1000 dump.lammpstrj id mol type element x y z ix iy iz 
dump_modify DUMP element O H M D

#fix efield all efield 0.0 0.0 0.06

timestep 1
run            5000000
write_data  restart2.data  











