%chk=teston.chk
%mem=20GB
%nprocshared=24
# freq  oniom(M062X:pm7)

structure

0 2 0 2 0 2
 C                0   13.75900000    9.17200000    7.85100000 L
 O                0   14.81800000    8.27300000    8.00700000 L
 H                0   12.75400000    8.69200000    7.78400000 L
 H                0   13.85700000    9.81600000    6.93700000 L
 H                0   13.64200000    9.86000000    8.68600000 L
 H                0   15.19000000    8.49400000    8.88100000 L
 C                0    9.84200000    6.56800000   16.08800000 L
 O                0   10.13900000    5.46800000   15.22900000 L
 H                0   10.68100000    6.90900000   16.63500000 L
 H                0    9.11800000    6.31200000   16.91700000 L
 H                0    9.42000000    7.45800000   15.52900000 L
 H                0   10.77400000    4.88200000   15.68300000 L
 C                0    8.53500000   10.50200000   15.05000000 L
 O                0    9.92500000   10.30600000   14.72000000 L
 H                0    8.27700000   10.37900000   16.13400000 L
 H                0    7.97300000    9.79700000   14.46000000 L
 H                0    8.20700000   11.58100000   14.84800000 L
 H                0   10.30300000   11.18000000   14.80500000 L
 C                0   11.77300000   18.97800000   17.39300000 L
 O                0   10.38900000   18.87400000   17.19300000 L
 H                0   12.07100000   18.21300000   18.08300000 L
 H                0   12.11700000   19.93700000   17.99000000 L
 H                0   12.29700000   18.88100000   16.39000000 L
 H                0   10.03900000   18.77100000   18.11000000 L
 C                0   19.84200000   16.53300000   11.12300000 L
 O                0   21.12300000   16.86400000   10.55400000 L
 H                0   18.96400000   16.70700000   10.44400000 L
 H                0   19.56100000   17.09400000   12.03600000 L
 H                0   19.83500000   15.43400000   11.30200000 L
 H                0   21.67800000   16.87800000   11.35900000 L
 C                0   10.21400000   16.96300000   12.00000000 L
 O                0    9.00100000   16.45600000   12.47700000 L
 H                0   10.68800000   17.68600000   12.65700000 L
 H                0   10.01600000   17.51700000   11.12200000 L
 H                0   11.02400000   16.21900000   11.74100000 L
 H                0    9.13800000   16.24000000   13.42200000 L
 C                0    3.80400000    6.00600000   13.97000000 L
 O                0    4.80400000    6.98800000   14.14700000 L
 H                0    2.76600000    6.38700000   14.22000000 L
 H                0    4.01400000    5.17000000   14.69000000 L
 H                0    3.81800000    5.61600000   12.92100000 L
 H                0    4.95100000    7.10000000   15.11700000 L
 C                0    1.74900000    8.26500000   11.23800000 L
 O                0    2.16700000    9.46400000   10.58400000 L
 H                0    2.15300000    8.22700000   12.21800000 L
 H                0    2.14400000    7.40100000   10.75700000 L
 H                0    0.65700000    8.07400000   11.31700000 L
 H                0    2.05500000   10.21500000   11.17700000 L
 C                0   20.73800000    8.53200000   11.10200000 L
 O                0   20.70800000    7.18800000   11.48800000 L
 H                0   19.93100000    9.09700000   11.52300000 L
 H                0   20.72500000    8.61800000    9.99100000 L
 H                0   21.66900000    9.02000000   11.50500000 L
 H                0   21.00800000    7.17400000   12.42000000 L
 C                0   15.04800000   18.69600000   10.41900000 L
 O                0   16.36700000   18.25300000   10.19900000 L
 H                0   14.99800000   19.79300000   10.40800000 L
 H                0   14.80500000   18.42700000   11.44000000 L
 H                0   14.46300000   18.18300000    9.65900000 L
 H                0   16.95900000   18.75000000   10.79500000 L
 C                0    1.77900000    9.48100000   15.73100000 L
 O                0    1.63900000    9.65400000   14.30200000 L
 H                0    2.81600000    9.68900000   16.07700000 L
 H                0    1.44800000    8.46800000   15.97500000 L
 H                0    1.10900000   10.19300000   16.24700000 L
 H                0    2.34700000   10.23500000   13.98000000 L
 C                0    6.66100000   14.55900000   16.43400000 L
 O                0    7.03900000   14.00100000   15.18800000 L
 H                0    5.61100000   14.35100000   16.73900000 L
 H                0    6.80000000   15.62200000   16.36700000 L
 H                0    7.32300000   14.21000000   17.24500000 L
 H                0    7.91100000   14.37400000   15.01800000 L
 C                0   14.24600000   13.66600000   20.41600000 L
 O                0   14.00900000   15.05800000   20.72200000 L
 H                0   13.46200000   13.33100000   19.77300000 L
 H                0   14.28300000   13.01600000   21.33600000 L
 H                0   15.23800000   13.57900000   19.96400000 L
 H                0   14.76400000   15.39900000   21.19900000 L
 C                0   15.81600000   21.48300000   17.04200000 L
 O                0   16.56300000   20.25600000   17.16300000 L
 H                0   14.75600000   21.26500000   17.18800000 L
 H                0   15.93900000   21.85400000   16.06700000 L
 H                0   16.06700000   22.10500000   17.92100000 L
 H                0   17.41800000   20.44700000   17.59100000 L
 C                0   11.65200000   19.97100000    8.53800000 L
 O                0   11.88700000   19.04300000    9.59600000 L
 H                0   12.39900000   20.74700000    8.59600000 L
 H                0   10.59400000   20.37900000    8.53900000 L
 H                0   11.77100000   19.51300000    7.57000000 L
 H                0   11.94000000   19.52100000   10.45000000 L
 C                0   14.85500000   11.44500000    4.78100000 L
 O                0   15.45800000   11.67900000    3.51700000 L
 H                0   13.75400000   11.08800000    4.71700000 L
 H                0   14.80900000   12.44500000    5.24800000 L
 H                0   15.38800000   10.77500000    5.50300000 L
 H                0   15.72000000   12.60700000    3.54100000 L
 C                0    8.60100000   11.96900000    5.16300000 L
 O                0    9.76900000   11.90800000    4.41700000 L
 H                0    8.13200000   12.96700000    4.99700000 L
 H                0    8.78500000   11.88700000    6.22800000 L
 H                0    8.01200000   11.08700000    4.89000000 L
 H                0   10.24500000   11.12100000    4.72900000 L
 C                0   10.77100000    6.10500000   19.66900000 L
 O                0   11.36900000    7.38500000   20.05300000 L
 H                0   11.56300000    5.36400000   19.44300000 L
 H                0   10.07000000    6.18100000   18.77200000 L
 H                0   10.14900000    5.82900000   20.59300000 L
 H                0   12.21500000    7.24600000   20.50300000 L
 C                0   16.96300000   15.33200000   13.35300000 L
 O                0   17.24400000   14.06600000   12.77400000 L
 H                0   15.85100000   15.49100000   13.34800000 L
 H                0   17.50000000   16.09600000   12.78600000 L
 H                0   17.28800000   15.31600000   14.35200000 L
 H                0   18.01500000   13.89000000   13.31200000 L
 C                0   13.15800000   12.08900000   15.04100000 L
 O                0   13.10300000   12.52000000   16.41600000 L
 H                0   12.58600000   12.81600000   14.45600000 L
 H                0   12.64200000   11.07000000   14.99900000 L
 H                0   14.17000000   12.07900000   14.65800000 L
 H                0   13.52200000   13.40300000   16.43000000 L
 C                0   15.42900000    7.96800000    4.03100000 L
 O                0   16.11800000    6.99100000    3.33400000 L
 H                0   14.87300000    7.62400000    4.92700000 L
 H                0   14.68400000    8.55900000    3.49300000 L
 H                0   16.18000000    8.72000000    4.42700000 L
 H                0   16.73700000    6.62500000    4.00000000 L
 C                0   21.53200000   11.55400000    8.93500000 L
 O                0   20.95600000   12.72800000    9.43400000 L
 H                0   22.45700000   11.17700000    9.62700000 L
 H                0   22.05300000   11.65300000    7.93600000 L
 H                0   20.85300000   10.66900000    8.78000000 L
 H                0   20.04500000   12.49900000    9.67000000 L
 C                0   11.78900000   18.85300000    4.44600000 L
 O                0   12.72800000   18.87500000    3.32000000 L
 H                0   10.80700000   18.88700000    3.98700000 L
 H                0   11.79200000   19.83600000    4.88400000 L
 H                0   11.84200000   17.97000000    5.17200000 L
 H                0   12.38700000   19.59500000    2.76200000 L
 C                0   -0.28700000   12.09800000   12.46200000 L
 O                0    1.11000000   11.80900000   12.34000000 L
 H                0   -0.48100000   13.01500000   13.10100000 L
 H                0   -0.86500000   11.26700000   12.99300000 L
 H                0   -0.80900000   12.27200000   11.55800000 L
 H                0    1.57700000   12.07400000   13.14400000 L
 C                0    1.59900000   13.48600000    9.24900000 L
 O                0    2.03900000   12.26000000    9.74200000 L
 H                0    1.88700000   13.62100000    8.21400000 L
 H                0    2.13900000   14.27200000    9.72500000 L
 H                0    0.53000000   13.67900000    9.40400000 L
 H                0    1.58900000   12.20100000   10.59500000 L
 C                0   16.57300000   11.73100000   16.97800000 L
 O                0   15.71300000   10.73300000   16.54800000 L
 H                0   17.63500000   11.44300000   17.13000000 L
 H                0   16.14700000   12.08500000   17.94100000 L
 H                0   16.61500000   12.45900000   16.24500000 L
 H                0   14.81700000   10.86400000   16.88800000 L
 C                0    8.47700000   15.74000000    9.06700000 L
 O                0    7.20700000   15.23600000    8.84800000 L
 H                0    8.73000000   16.82700000    8.73700000 L
 H                0    9.23500000   15.04000000    8.55300000 L
 H                0    8.69000000   15.68200000   10.10700000 L
 H                0    6.66600000   15.74300000    9.48200000 L
 C                0    3.34900000   16.53500000    7.22700000 L
 O                0    3.06300000   17.40100000    6.07900000 L
 H                0    3.52100000   15.46400000    6.91800000 L
 H                0    2.39500000   16.49400000    7.82500000 L
 H                0    4.19000000   16.91100000    7.78500000 L
 H                0    2.92600000   18.30500000    6.42400000 L
 C                0   17.97800000   13.85500000    3.70300000 L
 O                0   16.85900000   14.69800000    3.95700000 L
 H                0   18.12700000   13.12600000    4.54300000 L
 H                0   18.97900000   14.43300000    3.51600000 L
 H                0   17.78800000   13.21000000    2.81400000 L
 H                0   17.23600000   15.25800000    4.65200000 L
 C                0   14.12300000    7.59300000   17.72100000 L
 O                0   12.80000000    7.69300000   17.35800000 L
 H                0   14.25200000    7.48600000   18.85100000 L
 H                0   14.61000000    8.56300000   17.41600000 L
 H                0   14.58300000    6.76100000   17.12000000 L
 H                0   12.23900000    7.66900000   18.13600000 L
 C                0    5.54000000   11.36100000    9.11700000 L
 O                0    4.35400000   10.87000000    8.44300000 L
 H                0    5.45200000   11.47300000   10.21200000 L
 H                0    5.55000000   12.48100000    8.90700000 L
 H                0    6.50800000   10.91200000    8.70600000 L
 H                0    3.57500000   11.08700000    8.98500000 L
 C                0   17.94300000   11.08500000    6.79800000 L
 O                0   17.89000000   10.40100000    8.00100000 L
 H                0   18.17400000   10.38000000    5.96000000 L
 H                0   18.69800000   11.85200000    6.90800000 L
 H                0   16.96200000   11.62100000    6.64600000 L
 H                0   17.83200000   10.90800000    8.81900000 L
 C                0   12.69900000   14.52700000    6.30400000 L
 O                0   14.10400000   14.72300000    6.27600000 L
 H                0   12.23600000   14.80300000    7.27600000 L
 H                0   12.39900000   13.49700000    6.11300000 L
 H                0   12.26700000   15.10500000    5.52000000 L
 H                0   14.44500000   14.95500000    7.15200000 L
 C                0    2.78300000    7.74700000    5.18500000 L
 O                0    4.17400000    7.98800000    5.04900000 L
 H                0    2.68300000    6.68200000    5.01600000 L
 H                0    2.20700000    8.33300000    4.39200000 L
 H                0    2.42400000    7.91000000    6.19500000 L
 H                0    4.54400000    7.66000000    5.89600000 L
 C                0    6.95300000   18.77700000   16.43800000 L
 O                0    5.57500000   18.44100000   16.59700000 L
 H                0    7.47800000   18.17300000   15.77600000 L
 H                0    7.39900000   18.68500000   17.48600000 L
 H                0    7.02900000   19.83700000   16.05400000 L
 H                0    5.12900000   19.31100000   16.70200000 L
 C                0   21.82000000   11.76200000   17.10900000 L
 O                0   20.65300000   12.58300000   17.19700000 L
 H                0   22.55500000   12.12900000   16.42000000 L
 H                0   21.57100000   10.73100000   16.85400000 L
 H                0   22.44900000   11.74700000   18.03600000 L
 H                0   20.29800000   12.45400000   18.08800000 L
 C                0   17.70700000    7.67000000   15.16400000 L
 O                0   17.28500000    8.96200000   14.85900000 L
 H                0   18.60200000    7.25100000   14.54100000 L
 H                0   17.07800000    6.89600000   14.95300000 L
 H                0   17.81600000    7.47500000   16.25200000 L
 H                0   16.97500000    9.37000000   15.69200000 L
 C                0    8.76800000    7.97400000    7.90900000 L
 O                0    8.74500000    9.36200000    7.82500000 L
 H                0    8.14400000    7.56500000    8.62800000 L
 H                0    9.73000000    7.64700000    8.23700000 L
 H                0    8.59600000    7.66000000    6.92500000 L
 H                0    9.02800000    9.73700000    8.67500000 L
 C                0   20.36500000   11.79200000   13.53300000 L
 O                0   19.28500000   12.35500000   14.28900000 L
 H                0   20.47500000   10.68400000   13.71200000 L
 H                0   21.32300000   12.23900000   13.86600000 L
 H                0   20.16400000   11.95000000   12.45000000 L
 H                0   19.45000000   12.17300000   15.22300000 L
 C                0    4.67300000   13.05800000    5.46500000 L
 O                0    3.79600000   12.90400000    4.34600000 L
 H                0    5.71100000   13.13800000    4.99900000 L
 H                0    4.61600000   12.16600000    6.07400000 L
 H                0    4.36400000   13.95200000    6.09400000 L
 H                0    2.92900000   13.26100000    4.61100000 L
 C                0    4.38500000   11.13300000   20.06400000 L
 O                0    4.36700000   12.52900000   19.93900000 L
 H                0    4.48700000   10.57700000   19.18100000 L
 H                0    3.42600000   10.88100000   20.54200000 L
 H                0    5.13000000   10.81400000   20.83400000 L
 H                0    4.74800000   12.77700000   20.79600000 L
 C                0   17.32100000    5.33100000    5.71900000 L
 O                0   18.13600000    6.04300000    4.80300000 L
 H                0   17.91700000    4.83400000    6.48100000 L
 H                0   16.76300000    4.48300000    5.23100000 L
 H                0   16.56500000    5.98400000    6.22200000 L
 H                0   19.05900000    6.14000000    5.11800000 L
 C                0   20.69700000   12.26500000   20.90000000 L
 O                0   19.70300000   12.48500000   19.96900000 L
 H                0   20.28200000   11.51600000   21.67400000 L
 H                0   21.10700000   13.21100000   21.30000000 L
 H                0   21.54600000   11.88300000   20.39000000 L
 H                0   18.88900000   12.16800000   20.36600000 L
 C                0   11.53900000   10.74800000   19.24600000 L
 O                0   11.02100000   11.50900000   18.16900000 L
 H                0   12.62600000   10.93700000   19.31300000 L
 H                0   11.34300000    9.67300000   19.15700000 L
 H                0   11.06300000   11.07200000   20.17200000 L
 H                0   11.76600000   11.90300000   17.67800000 L
 C                0    1.66700000   13.36500000   15.39600000 L
 O                0    2.58000000   12.90700000   14.43900000 L
 H                0    2.03600000   14.27600000   15.89300000 L
 H                0    1.46700000   12.51200000   16.07400000 L
 H                0    0.72900000   13.59200000   14.92400000 L
 H                0    3.39700000   12.76800000   14.94600000 L
 C                0    4.99000000    6.66900000    8.23400000 L
 O                0    5.08300000    7.95800000    7.59400000 L
 H                0    5.49000000    6.58800000    9.21100000 L
 H                0    5.57000000    5.84300000    7.73600000 L
 H                0    3.94000000    6.36200000    8.33300000 L
 H                0    5.03900000    8.68100000    8.25400000 L
 C                0    9.22000000   16.20800000    5.65500000 L
 O                0    7.88200000   16.34900000    6.11800000 L
 H                0    9.52900000   15.17400000    5.48800000 L
 H                0    9.92700000   16.65700000    6.25400000 L
 H                0    9.24300000   16.67000000    4.62100000 L
 H                0    7.81600000   16.04000000    7.04000000 L
 C                0   13.72100000   14.85800000    2.33700000 L
 O                0   15.08600000   14.36100000    2.01300000 L
 H                0   13.26100000   14.25000000    3.20100000 L
 H                0   13.09600000   14.77400000    1.42000000 L
 H                0   13.84800000   15.95100000    2.62100000 L
 H                0   15.70800000   14.50100000    2.77700000 L
 C                0   11.28400000    5.60100000   10.87400000 L
 O                0   11.85200000    6.92900000   10.61600000 L
 H                0   11.79700000    5.19600000   11.80800000 L
 H                0   11.69100000    4.84300000   10.10600000 L
 H                0   10.19400000    5.50200000   10.88900000 L
 H                0   11.57600000    7.47100000   11.36000000 L
 C                0   12.53800000   21.41400000   12.34400000 L
 O                0   11.80900000   20.23400000   12.24200000 L
 H                0   13.09200000   21.49600000   13.35100000 L
 H                0   11.87700000   22.22800000   12.15800000 L
 H                0   13.25200000   21.45400000   11.57600000 L
 H                0   11.24000000   20.26700000   13.03400000 L
 C                0   17.63400000   11.24500000   10.78400000 L
 O                0   17.80200000   12.62800000   10.38000000 L
 H                0   17.50400000   11.16900000   11.88700000 L
 H                0   18.47700000   10.59900000   10.51900000 L
 H                0   16.72100000   10.77200000   10.39000000 L
 H                0   17.43000000   13.19400000   11.08300000 L
 C                0   15.10100000   18.38700000   14.86100000 L
 O                0   16.41700000   18.19000000   15.30300000 L
 H                0   14.92500000   19.35300000   14.36900000 L
 H                0   14.36800000   18.28000000   15.70100000 L
 H                0   14.86200000   17.52800000   14.20600000 L
 H                0   16.54900000   18.86900000   15.99200000 L
 C                0   15.84500000   15.10300000    9.46200000 L
 O                0   16.69700000   16.06200000    8.83700000 L
 H                0   14.78700000   15.48100000    9.51500000 L
 H                0   16.20400000   14.84200000   10.45900000 L
 H                0   15.75900000   14.16500000    8.81700000 L
 H                0   16.59300000   16.89200000    9.36100000 L
 C                0    8.20600000    8.74200000   18.74100000 L
 O                0    6.84400000    9.01900000   18.65700000 L
 H                0    8.27600000    7.79000000   19.30000000 L
 H                0    8.67600000    9.58200000   19.33100000 L
 H                0    8.74200000    8.58000000   17.80900000 L
 H                0    6.74700000    9.96300000   18.78100000 L
 C                0    6.66200000    8.89600000   11.92900000 L
 O                0    5.73000000    7.79500000   11.84500000 L
 H                0    7.67600000    8.45900000   12.03600000 L
 H                0    6.42700000    9.61900000   12.69400000 L
 H                0    6.66100000    9.41700000   10.99500000 L
 H                0    5.43100000    7.60300000   12.75700000 L
 C                0   13.87100000   18.65300000   20.50500000 L
 O                0   14.74300000   18.65900000   19.36300000 L
 H                0   14.56000000   18.86900000   21.36300000 L
 H                0   13.25200000   17.76500000   20.70300000 L
 H                0   13.05900000   19.43700000   20.34400000 L
 H                0   15.24400000   19.44500000   19.54700000 L
 C                0   16.54700000    9.81700000   19.86800000 L
 O                0   17.04500000   11.09700000   20.38200000 L
 H                0   15.47100000    9.87200000   19.66600000 L
 H                0   16.79900000    9.12600000   20.68300000 L
 H                0   17.14500000    9.58800000   18.98100000 L
 H                0   16.84100000   11.06300000   21.34900000 L
 C                0   16.12200000   18.36000000    6.32000000 L
 O                0   15.52800000   19.63600000    5.87800000 L
 H                0   15.69100000   17.44600000    5.84500000 L
 H                0   15.89600000   18.22300000    7.39500000 L
 H                0   17.17900000   18.43400000    6.26900000 L
 H                0   14.91000000   19.39500000    5.17700000 L
 C                0   23.78900000   15.80100000   11.99200000 L
 O                0   22.55800000   15.95800000   12.68400000 L
 H                0   24.66100000   15.90800000   12.67300000 L
 H                0   23.93000000   16.57900000   11.22100000 L
 H                0   23.87400000   14.72600000   11.62300000 L
 H                0   22.51700000   15.26500000   13.35800000 L
 C                0   22.89000000   15.61500000    8.00900000 L
 O                0   22.37100000   16.88700000    7.87300000 L
 H                0   23.40900000   15.37800000    7.03300000 L
 H                0   22.20700000   14.78700000    8.18400000 L
 H                0   23.62100000   15.66400000    8.80800000 L
 H                0   21.95900000   17.05600000    8.73200000 L
 C                0    7.94900000    3.67100000   10.27400000 L
 O                0    8.25100000    2.94700000   11.47900000 L
 H                0    6.83300000    3.92400000   10.18700000 L
 H                0    8.04600000    3.11700000    9.28000000 L
 H                0    8.48400000    4.61600000   10.18500000 L
 H                0    8.03200000    3.52000000   12.25300000 L
 C                0    5.02000000   11.35500000   16.63900000 L
 O                0    5.06900000   11.34100000   15.17000000 L
 H                0    4.00900000   11.43900000   17.03600000 L
 H                0    5.58200000   12.21500000   17.07600000 L
 H                0    5.39400000   10.43600000   17.00500000 L
 H                0    5.96200000   11.56600000   14.86600000 L
 C                0   18.56700000   15.30700000   18.08100000 L
 O                0   17.51000000   14.65100000   18.79700000 L
 H                0   19.46800000   15.46600000   18.76900000 L
 H                0   18.34700000   16.31600000   17.67000000 L
 H                0   18.92900000   14.56800000   17.30700000 L
 H                0   17.28800000   15.10400000   19.62300000 L
 C                0   16.38700000    3.51200000   15.06800000 L
 O                0   17.25100000    3.17000000   13.94400000 L
 H                0   15.29700000    3.40800000   14.87900000 L
 H                0   16.52400000    4.58400000   15.22400000 L
 H                0   16.74700000    3.06000000   16.02500000 L
 H                0   18.13700000    3.23100000   14.36700000 L
 C                0   21.78800000    4.64500000    9.66800000 L
 O                0   20.99800000    5.73300000    9.24000000 L
 H                0   22.81100000    4.68500000    9.27400000 L
 H                0   21.34100000    3.72000000    9.29300000 L
 H                0   21.80900000    4.63900000   10.80900000 L
 H                0   20.80200000    6.29000000   10.02300000 L
 C                0    4.53600000    6.94600000   17.74800000 L
 O                0    5.39200000    7.44300000   16.77000000 L
 H                0    3.48300000    6.98800000   17.48800000 L
 H                0    4.65100000    7.54600000   18.69600000 L
 H                0    4.77100000    5.88000000   17.95100000 L
 H                0    6.03700000    7.97000000   17.26100000 L
 C                0   19.25000000   15.32100000    6.64400000 L
 O                0   17.85300000   15.36300000    6.34400000 L
 H                0   19.58100000   14.39400000    7.16400000 L
 H                0   19.46900000   16.19100000    7.29100000 L
 H                0   19.82600000   15.31600000    5.67600000 L
 H                0   17.35800000   15.34500000    7.19100000 L
 C                0   10.27300000   14.27400000    2.49100000 L
 O                0   10.09900000   13.02000000    1.83800000 L
 H                0    9.39400000   14.76200000    2.89800000 L
 H                0   10.78800000   14.96500000    1.83900000 L
 H                0   10.94100000   14.10000000    3.36700000 L
 H                0   10.03500000   12.49600000    2.64500000 L
 C                0   12.97100000   10.46400000    1.24000000 L
 O                0   14.29500000   11.04400000    1.22200000 L
 H                0   12.39500000   10.70500000    2.19200000 L
 H                0   13.06200000    9.36400000    1.35900000 L
 H                0   12.46700000   10.65400000    0.27100000 L
 H                0   14.47500000   11.50200000    2.06900000 L
 C                0    6.90800000    7.19900000    3.65600000 L
 O                0    6.09600000    8.27500000    3.20700000 L
 H                0    7.21500000    7.29100000    4.71400000 L
 H                0    7.85700000    7.03400000    3.07100000 L
 H                0    6.20500000    6.37900000    3.52100000 L
 H                0    5.25000000    8.19400000    3.71500000 L
 C                0    5.24700000   19.93500000   12.46600000 L
 O                0    4.27300000   20.87000000   11.96500000 L
 H                0    4.82100000   18.94100000   12.34900000 L
 H                0    5.62400000   20.10900000   13.47600000 L
 H                0    6.05500000   19.82700000   11.78700000 L
 H                0    3.46600000   20.86000000   12.51900000 L
 C                0    7.78000000   15.97100000   20.35600000 L
 O                0    8.92700000   16.24700000   21.13900000 L
 H                0    7.52300000   16.65200000   19.54600000 L
 H                0    6.89000000   16.11000000   20.98900000 L
 H                0    7.80700000   15.01000000   19.85800000 L
 H                0    9.04000000   15.51800000   21.77800000 L
 C                0   17.53100000   20.66200000   12.17400000 L
 O                0   17.71000000   19.28100000   12.44700000 L
 H                0   17.86300000   20.86400000   11.12400000 L
 H                0   18.25600000   21.22300000   12.74700000 L
 H                0   16.47800000   21.05500000   12.27900000 L
 H                0   17.68900000   19.19000000   13.41200000 L
 C                0   13.36600000    5.06200000    7.52700000 L
 O                0   12.79900000    5.81000000    6.52500000 L
 H                0   12.74300000    4.20800000    7.80100000 L
 H                0   13.47000000    5.75200000    8.35000000 L
 H                0   14.34300000    4.73600000    7.11400000 L
 H                0   13.20200000    6.68700000    6.45400000 L
 C                0    9.74200000   21.48800000   14.95400000 L
 O                0   10.47700000   20.28600000   14.70400000 L
 H                0    8.87800000   21.29900000   15.60500000 L
 H                0    9.44900000   21.82300000   13.96900000 L
 H                0   10.39900000   22.22700000   15.44100000 L
 H                0   10.56100000   19.83300000   15.57400000 L
 C                0   11.54500000    8.57800000    4.82200000 L
 O                0   11.41000000    9.78400000    5.70100000 L
 H                0   10.82400000    7.82700000    5.09400000 L
 H                0   12.46500000    8.09600000    5.10400000 L
 H                0   11.60800000    8.85800000    3.72600000 L
 H                0   11.37400000    9.48200000    6.62100000 L
 C                0   13.55200000    6.84600000   14.14700000 L
 O                0   14.02700000    8.20600000   14.40200000 L
 H                0   13.68200000    6.70400000   13.04900000 L
 H                0   12.51600000    6.62800000   14.51100000 L
 H                0   14.21000000    6.18500000   14.70200000 L
 H                0   13.73800000    8.46300000   15.28600000 L
 C                0    9.36000000   19.85300000   19.68100000 L
 O                0    9.72500000   18.53800000   19.69100000 L
 H                0    8.32400000   20.04500000   19.25000000 L
 H                0   10.08200000   20.46200000   19.08600000 L
 H                0    9.29000000   20.20800000   20.71800000 L